
Gurobi 12.0.2 (win64) logging started Wed Nov 26 14:56:48 2025

Set parameter LogFile to value "resultados DATA_1_n50m10b2d2\instancia_9_log.txt"
Set parameter TimeLimit to value 3600
Gurobi Optimizer version 12.0.2 build v12.0.2rc0 (win64 - Windows 10.0 (19045.2))

CPU model: Intel(R) Core(TM) i5-6300U CPU @ 2.40GHz, instruction set [SSE2|AVX|AVX2]
Thread count: 2 physical cores, 4 logical processors, using up to 4 threads

Non-default parameters:
TimeLimit  3600

Optimize a model with 738 rows, 851 columns and 150051 nonzeros
Model fingerprint: 0xbbda8955
Variable types: 0 continuous, 851 integer (851 binary)
Coefficient statistics:
  Matrix range     [1e+00, 1e+00]
  Objective range  [5e-02, 2e-01]
  Bounds range     [1e+00, 1e+00]
  RHS range        [1e+00, 8e+00]
Found heuristic solution: objective 0.7131360
Presolve removed 13 rows and 699 columns
Presolve time: 0.15s
Presolved: 725 rows, 152 columns, 17615 nonzeros
Found heuristic solution: objective 0.3504000
Variable types: 0 continuous, 152 integer (152 binary)

Root relaxation: objective 8.313653e-01, 252 iterations, 0.03 seconds (0.02 work units)

    Nodes    |    Current Node    |     Objective Bounds      |     Work
 Expl Unexpl |  Obj  Depth IntInf | Incumbent    BestBd   Gap | It/Node Time

     0     0    0.83137    0   28    0.71314    0.83137  16.6%     -    0s
H    0     0                       0.7245440    0.83137  14.7%     -    0s
H    0     0                       0.7295840    0.83137  14.0%     -    0s
*    0     0               0       0.7986720    0.79867  0.00%     -    0s

Cutting planes:
  Gomory: 6
  Clique: 6
  Zero half: 49

Explored 1 nodes (418 simplex iterations) in 0.46 seconds (0.21 work units)
Thread count was 4 (of 4 available processors)

Solution count 5: 0.798672 0.729584 0.724544 ... 0.3504
No other solutions better than 0.798672

Optimal solution found (tolerance 1.00e-04)
Best objective 7.986720000000e-01, best bound 7.986720000000e-01, gap 0.0000%
